language Essence 1.3

letting pain be
[
    [
        tuple ( tuple (
            [(1,4),(2,5), (3,6)]
        ) ) ,

        tuple ( tuple (
            [(3,5),(1,6), (2,4)]
        ) ) 
    ],
    [
        tuple ( tuple (
            [(1,4),(2,5), (3,6)]
        ) ) ,

        tuple ( tuple (
            [(3,5),(1,6), (2,4)]
        ) ) 
    ]
]
